'hugeuniform111'
150 100 100
148
147
147
146
143
139
139
138
136
133
132
132
130
129
120
120
119
117
114
113
112
112
112
111
111
109
107
107
105
103
101
98
97
94
92
91
90
90
89
87
87
85
84
84
83
83
78
77
76
74
71
70
69
65
65
63
63
62
61
56
55
52
52
51
50
49
49
48
45
45
42
34
34
33
33
32
30
29
28
25
23
23
22
19
16
15
14
13
13
12
11
8
6
5
4
3
2
2
1
0
